68
125
87	3
86	1
85	4
84	6
83	2
82	3
80	2
79	2
78	8
77	1
76	3
75	4
74	3
73	3
72	4
71	3
70	5
69	2
67	3
65	1
64	2
63	3
62	4
61	2
60	3
59	2
57	2
56	6
55	6
54	1
53	2
52	3
51	5
50	3
49	7
48	2
47	3
46	6
45	5
43	5
42	1
41	3
39	2
38	2
37	1
36	2
35	1
34	1
33	2
31	1
30	2
29	2
28	1
27	1
26	5
25	2
24	2
23	2
22	4
20	3
19	2
18	5
17	3
16	4
15	4
14	1
13	4
12	2
